50
22220

413 267
559 243
959 745
294 886
583 518
294 729
530 859
254 628
820 668
411 825
653 59
703 399
567 471
9 742
562 267
94 489
266 427
458 931
860 18
591 909
828 394
859 407
784 912
673 270
570 550
860 831
6 562
514 778
451 923
550 677
961 224
352 775
527 620
977 697
373 937
671 98
712 230
165 510
993 589
431 692
399 457
872 623
304 3
225 687
486 884
356 565
219 570
852 956
689 324
620 828
